120
50
2 3
8 2
1 2
8 9
6 9
8 1
2 6
4 6
7 5
2 5
6 7
5 1
6 6
8 7
6 3
5 9
7 8
1 4
8 5
2 3
9 1
9 1
7 1
7 1
9 3
9 7
9 3
5 6
2 7
2 6
6 8
1 7
1 7
4 9
6 6
4 4
2 7
8 3
5 9
8 2
7 7
1 7
1 9
3 1
6 2
5 2
6 8
3 1
3 4
4 3
